unsat
(define-fun SC ((s (_ BitVec 4)) (t (_ BitVec 4))) Bool (= t (bvurem t (bvudiv #b0000 s))))
2.20user 0.02system 0:02.22elapsed 100%CPU (0avgtext+0avgdata 57116maxresident)k
0inputs+8outputs (0major+8945minor)pagefaults 0swaps
